
===== New CPLEX run =====
Instance: /home/yorig/tuner/mpils-tests/instances/miplib/easy/supportcase33.mps
Config: /scratch/yorig/mpils-results-grid-seconds-5-watchdog-mip-start/easy/8proc/seed-4/10_supportcase33_seed-4_20260504_032501/iterated_local_search/run_3_worker_3/ils_config_12403541726781240619.prm
========================

Selected objective sense:  MINIMIZE
Selected objective  name:  obj
Selected RHS        name:  rhs
Selected bound      name:  bnd
Wall watchdog: enabled factor=1 grace=1 limit=6 seconds
Version identifier: 22.1.2.0 | 2024-11-26 | 0edbb82fd
CPXPARAM_Threads                                 8
CPXPARAM_Parallel                                1
CPXPARAM_MIP_Cuts_Covers                         3
CPXPARAM_MIP_Strategy_SubAlgorithm               5
CPXPARAM_MIP_Strategy_VariableSelect             4
CPXPARAM_MIP_Cuts_FlowCovers                     -1
CPXPARAM_MIP_Strategy_Probe                      1
CPXPARAM_MIP_Cuts_GUBCovers                      1
CPXPARAM_MIP_Limits_GomoryCand                   50
CPXPARAM_MIP_Cuts_Gomory                         1
CPXPARAM_MIP_Cuts_PathCut                        2
CPXPARAM_MIP_Cuts_MIRCut                         1
CPXPARAM_Emphasis_MIP                            2
CPXPARAM_TimeLimit                               5
Found incumbent of value 0.000000 after 0.00 sec. (2.20 ticks)
Tried aggregator 2 times.
MIP Presolve eliminated 17556 rows and 13423 columns.
MIP Presolve modified 14568 coefficients.
Aggregator did 11 substitutions.
Reduced MIP has 2922 rows, 6763 columns, and 53605 nonzeros.
Reduced MIP has 6683 binaries, 80 generals, 0 SOSs, and 0 indicators.
Presolve time = 0.09 sec. (158.17 ticks)
Probing fixed 667 vars, tightened 0 bounds.
Probing changed sense of 39 constraints.
Probing time = 0.18 sec. (252.14 ticks)
Tried aggregator 2 times.
Detecting symmetries...
MIP Presolve eliminated 639 rows and 667 columns.
MIP Presolve modified 197 coefficients.
Aggregator did 7 substitutions.
Reduced MIP has 2276 rows, 6089 columns, and 46722 nonzeros.
Reduced MIP has 6009 binaries, 80 generals, 0 SOSs, and 0 indicators.
Presolve time = 0.03 sec. (37.79 ticks)
Probing fixed 10 vars, tightened 0 bounds.
Probing time = 0.16 sec. (237.74 ticks)
Clique table members: 24351.
MIP emphasis: optimality.
MIP search method: dynamic search.
Parallel mode: deterministic, using up to 8 threads.
Root relaxation solution time = 0.05 sec. (100.26 ticks)

        Nodes                                         Cuts/
   Node  Left     Objective  IInf  Best Integer    Best Bound    ItCnt     Gap

*     0+    0                            0.0000    -1075.0000              --- 
      0     0     -462.8425   113        0.0000     -462.8425     1315     --- 
      0     0     -445.6250   129        0.0000     Cuts: 120     1319     --- 
      0     0     -444.5455   146        0.0000      Cuts: 97     1324     --- 
      0     0     -443.7500   142        0.0000      Cuts: 59     1328     --- 
*     0+    0                          -45.0000     -443.7500           886.11%
      0     0     -443.7500   138      -45.0000      Cuts: 50     1332  886.11%
*     0+    0                         -105.0000     -443.7500           322.62%
      0     0     -440.0000   112     -105.0000      Cuts: 54     1335  319.05%
Detecting symmetries...
      0     0     -440.0000   111     -105.0000      Cuts: 60     1338  319.05%

GUB cover cuts applied:  2
Cover cuts applied:  4
Implied bound cuts applied:  13
Mixed integer rounding cuts applied:  16
Flow path cuts applied:  0
Zero-half cuts applied:  17
Lift and project cuts applied:  1
Gomory fractional cuts applied:  3

Root node processing (before b&c):
  Real time             =    5.00 sec. (7367.95 ticks)
Parallel b&c, 8 threads:
  Real time             =    0.00 sec. (0.00 ticks)
  Sync time (average)   =    0.00 sec.
  Wait time (average)   =    0.00 sec.
                          ------------
Total (root+branch&cut) =    5.00 sec. (7367.95 ticks)
Gap: 319.05%
Upper bound: -105
Lower bound: -440
Termination status: Normal
End of CPLEX run. Time: 5.00985 seconds

===== New CPLEX run =====
Instance: /home/yorig/tuner/mpils-tests/instances/miplib/easy/supportcase33.mps
Config: /scratch/yorig/mpils-results-grid-seconds-5-watchdog-mip-start/easy/8proc/seed-4/10_supportcase33_seed-4_20260504_032501/iterated_local_search/run_3_worker_3/ils_config_15342438600506860018.prm
========================

Selected objective sense:  MINIMIZE
Selected objective  name:  obj
Selected RHS        name:  rhs
Selected bound      name:  bnd
Wall watchdog: enabled factor=1 grace=1 limit=6 seconds
Version identifier: 22.1.2.0 | 2024-11-26 | 0edbb82fd
CPXPARAM_Threads                                 8
CPXPARAM_Parallel                                1
CPXPARAM_MIP_Cuts_Covers                         3
CPXPARAM_MIP_Strategy_SubAlgorithm               5
CPXPARAM_MIP_Strategy_VariableSelect             -1
CPXPARAM_MIP_Cuts_FlowCovers                     -1
CPXPARAM_MIP_Strategy_Probe                      1
CPXPARAM_MIP_Cuts_GUBCovers                      1
CPXPARAM_MIP_Limits_GomoryCand                   50
CPXPARAM_MIP_Cuts_Gomory                         1
CPXPARAM_MIP_Cuts_PathCut                        2
CPXPARAM_MIP_Cuts_MIRCut                         1
CPXPARAM_Emphasis_MIP                            2
CPXPARAM_TimeLimit                               5
Found incumbent of value 0.000000 after 0.00 sec. (2.20 ticks)
Tried aggregator 2 times.
MIP Presolve eliminated 17556 rows and 13423 columns.
MIP Presolve modified 14568 coefficients.
Aggregator did 11 substitutions.
Reduced MIP has 2922 rows, 6763 columns, and 53605 nonzeros.
Reduced MIP has 6683 binaries, 80 generals, 0 SOSs, and 0 indicators.
Presolve time = 0.09 sec. (158.17 ticks)
Probing fixed 667 vars, tightened 0 bounds.
Probing changed sense of 39 constraints.
Probing time = 0.17 sec. (252.14 ticks)
Tried aggregator 2 times.
Detecting symmetries...
MIP Presolve eliminated 639 rows and 667 columns.
MIP Presolve modified 197 coefficients.
Aggregator did 7 substitutions.
Reduced MIP has 2276 rows, 6089 columns, and 46722 nonzeros.
Reduced MIP has 6009 binaries, 80 generals, 0 SOSs, and 0 indicators.
Presolve time = 0.03 sec. (37.79 ticks)
Probing fixed 10 vars, tightened 0 bounds.
Probing time = 0.16 sec. (237.74 ticks)
Clique table members: 24351.
MIP emphasis: optimality.
MIP search method: dynamic search.
Parallel mode: deterministic, using up to 8 threads.
Root relaxation solution time = 0.05 sec. (100.26 ticks)

        Nodes                                         Cuts/
   Node  Left     Objective  IInf  Best Integer    Best Bound    ItCnt     Gap

*     0+    0                            0.0000    -1075.0000              --- 
      0     0     -462.8425   113        0.0000     -462.8425     1315     --- 
      0     0     -445.6250   129        0.0000     Cuts: 120     1319     --- 
      0     0     -444.5455   146        0.0000      Cuts: 97     1324     --- 
      0     0     -443.7500   142        0.0000      Cuts: 59     1328     --- 
*     0+    0                          -45.0000     -443.7500           886.11%
      0     0     -443.7500   138      -45.0000      Cuts: 50     1332  886.11%
*     0+    0                         -105.0000     -443.7500           322.62%
      0     0     -440.0000   112     -105.0000      Cuts: 54     1335  319.05%
Detecting symmetries...
      0     0     -440.0000   111     -105.0000      Cuts: 60     1338  319.05%

GUB cover cuts applied:  2
Cover cuts applied:  4
Implied bound cuts applied:  13
Mixed integer rounding cuts applied:  16
Flow path cuts applied:  0
Zero-half cuts applied:  17
Lift and project cuts applied:  1
Gomory fractional cuts applied:  3

Root node processing (before b&c):
  Real time             =    5.00 sec. (7373.89 ticks)
Parallel b&c, 8 threads:
  Real time             =    0.00 sec. (0.00 ticks)
  Sync time (average)   =    0.00 sec.
  Wait time (average)   =    0.00 sec.
                          ------------
Total (root+branch&cut) =    5.00 sec. (7373.89 ticks)
Gap: 319.05%
Upper bound: -105
Lower bound: -440
Termination status: Normal
End of CPLEX run. Time: 5.0065 seconds

===== New CPLEX run =====
Instance: /home/yorig/tuner/mpils-tests/instances/miplib/easy/supportcase33.mps
Config: /scratch/yorig/mpils-results-grid-seconds-5-watchdog-mip-start/easy/8proc/seed-4/10_supportcase33_seed-4_20260504_032501/iterated_local_search/run_3_worker_3/ils_config_792301222208644483.prm
========================

Selected objective sense:  MINIMIZE
Selected objective  name:  obj
Selected RHS        name:  rhs
Selected bound      name:  bnd
Wall watchdog: enabled factor=1 grace=1 limit=6 seconds
Version identifier: 22.1.2.0 | 2024-11-26 | 0edbb82fd
CPXPARAM_Threads                                 8
CPXPARAM_Parallel                                1
CPXPARAM_MIP_Cuts_Covers                         3
CPXPARAM_MIP_Strategy_SubAlgorithm               5
CPXPARAM_MIP_Strategy_VariableSelect             4
CPXPARAM_MIP_Cuts_FlowCovers                     -1
CPXPARAM_MIP_Strategy_Probe                      1
CPXPARAM_MIP_Cuts_GUBCovers                      1
CPXPARAM_MIP_Limits_GomoryCand                   50
CPXPARAM_MIP_Cuts_Gomory                         1
CPXPARAM_MIP_Cuts_PathCut                        2
CPXPARAM_Emphasis_MIP                            2
CPXPARAM_TimeLimit                               5
Found incumbent of value 0.000000 after 0.00 sec. (2.20 ticks)
Tried aggregator 2 times.
MIP Presolve eliminated 17556 rows and 13423 columns.
MIP Presolve modified 14568 coefficients.
Aggregator did 11 substitutions.
Reduced MIP has 2922 rows, 6763 columns, and 53605 nonzeros.
Reduced MIP has 6683 binaries, 80 generals, 0 SOSs, and 0 indicators.
Presolve time = 0.09 sec. (158.17 ticks)
Probing fixed 667 vars, tightened 0 bounds.
Probing changed sense of 39 constraints.
Probing time = 0.17 sec. (252.14 ticks)
Tried aggregator 2 times.
Detecting symmetries...
MIP Presolve eliminated 639 rows and 667 columns.
MIP Presolve modified 197 coefficients.
Aggregator did 7 substitutions.
Reduced MIP has 2276 rows, 6089 columns, and 46722 nonzeros.
Reduced MIP has 6009 binaries, 80 generals, 0 SOSs, and 0 indicators.
Presolve time = 0.03 sec. (37.79 ticks)
Probing fixed 10 vars, tightened 0 bounds.
Probing time = 0.16 sec. (237.74 ticks)
Clique table members: 24351.
MIP emphasis: optimality.
MIP search method: dynamic search.
Parallel mode: deterministic, using up to 8 threads.
Root relaxation solution time = 0.05 sec. (100.26 ticks)

        Nodes                                         Cuts/
   Node  Left     Objective  IInf  Best Integer    Best Bound    ItCnt     Gap

*     0+    0                            0.0000    -1075.0000              --- 
      0     0     -462.8425   113        0.0000     -462.8425     1315     --- 
      0     0     -446.6667   120        0.0000      Cuts: 63     1320     --- 
      0     0     -446.6667   122        0.0000      Cuts: 65     1325     --- 
      0     0     -446.6667   112        0.0000       Cuts: 6     1330     --- 
*     0+    0                          -15.0000     -446.6667              --- 
*     0+    0                         -145.0000     -446.6667           208.05%
      0     0  -1.00000e+75     0     -145.0000     -446.6667     1330  208.05%
      0     0     -446.6667   131     -145.0000      Cuts: 37     1335  208.05%
Advanced basis not built.
Advanced basis not built.

GUB cover cuts applied:  1
Cover cuts applied:  3
Implied bound cuts applied:  10
Mixed integer rounding cuts applied:  4
Flow path cuts applied:  0
Zero-half cuts applied:  6
Gomory fractional cuts applied:  2

Root node processing (before b&c):
  Real time             =    5.00 sec. (7737.05 ticks)
Parallel b&c, 8 threads:
  Real time             =    0.00 sec. (0.00 ticks)
  Sync time (average)   =    0.00 sec.
  Wait time (average)   =    0.00 sec.
                          ------------
Total (root+branch&cut) =    5.00 sec. (7737.05 ticks)
Gap: 203.57%
Upper bound: -145
Lower bound: -440.183
Termination status: Normal
End of CPLEX run. Time: 5.00764 seconds

===== New CPLEX run =====
Instance: /home/yorig/tuner/mpils-tests/instances/miplib/easy/supportcase33.mps
Config: /scratch/yorig/mpils-results-grid-seconds-5-watchdog-mip-start/easy/8proc/seed-4/10_supportcase33_seed-4_20260504_032501/iterated_local_search/run_3_worker_3/ils_config_3901451254250843360.prm
========================

Selected objective sense:  MINIMIZE
Selected objective  name:  obj
Selected RHS        name:  rhs
Selected bound      name:  bnd
Wall watchdog: enabled factor=1 grace=1 limit=6 seconds
Version identifier: 22.1.2.0 | 2024-11-26 | 0edbb82fd
CPXPARAM_Threads                                 8
CPXPARAM_Parallel                                1
CPXPARAM_MIP_Cuts_Covers                         3
CPXPARAM_MIP_Strategy_SubAlgorithm               5
CPXPARAM_MIP_Strategy_VariableSelect             1
CPXPARAM_MIP_Cuts_FlowCovers                     -1
CPXPARAM_MIP_Strategy_Probe                      1
CPXPARAM_MIP_Cuts_GUBCovers                      1
CPXPARAM_MIP_Limits_GomoryCand                   50
CPXPARAM_MIP_Cuts_Gomory                         1
CPXPARAM_MIP_Cuts_PathCut                        2
CPXPARAM_Emphasis_MIP                            2
CPXPARAM_TimeLimit                               5
Found incumbent of value 0.000000 after 0.00 sec. (2.20 ticks)
Tried aggregator 2 times.
MIP Presolve eliminated 17556 rows and 13423 columns.
MIP Presolve modified 14568 coefficients.
Aggregator did 11 substitutions.
Reduced MIP has 2922 rows, 6763 columns, and 53605 nonzeros.
Reduced MIP has 6683 binaries, 80 generals, 0 SOSs, and 0 indicators.
Presolve time = 0.09 sec. (158.17 ticks)
Probing fixed 667 vars, tightened 0 bounds.
Probing changed sense of 39 constraints.
Probing time = 0.18 sec. (252.14 ticks)
Tried aggregator 2 times.
Detecting symmetries...
MIP Presolve eliminated 639 rows and 667 columns.
MIP Presolve modified 197 coefficients.
Aggregator did 7 substitutions.
Reduced MIP has 2276 rows, 6089 columns, and 46722 nonzeros.
Reduced MIP has 6009 binaries, 80 generals, 0 SOSs, and 0 indicators.
Presolve time = 0.03 sec. (37.79 ticks)
Probing fixed 10 vars, tightened 0 bounds.
Probing time = 0.16 sec. (237.74 ticks)
Clique table members: 24351.
MIP emphasis: optimality.
MIP search method: dynamic search.
Parallel mode: deterministic, using up to 8 threads.
Root relaxation solution time = 0.05 sec. (100.26 ticks)

        Nodes                                         Cuts/
   Node  Left     Objective  IInf  Best Integer    Best Bound    ItCnt     Gap

*     0+    0                            0.0000    -1075.0000              --- 
      0     0     -462.8425   113        0.0000     -462.8425     1315     --- 
      0     0     -446.6667   120        0.0000      Cuts: 63     1320     --- 
      0     0     -446.6667   122        0.0000      Cuts: 65     1325     --- 
      0     0     -446.6667   112        0.0000       Cuts: 6     1330     --- 
*     0+    0                          -15.0000     -446.6667              --- 
*     0+    0                         -145.0000     -446.6667           208.05%
      0     0  -1.00000e+75     0     -145.0000     -446.6667     1330  208.05%
      0     0     -446.6667   131     -145.0000      Cuts: 37     1335  208.05%
Advanced basis not built.
Advanced basis not built.

GUB cover cuts applied:  1
Cover cuts applied:  3
Implied bound cuts applied:  10
Mixed integer rounding cuts applied:  4
Flow path cuts applied:  0
Zero-half cuts applied:  6
Gomory fractional cuts applied:  2

Root node processing (before b&c):
  Real time             =    5.00 sec. (7728.58 ticks)
Parallel b&c, 8 threads:
  Real time             =    0.00 sec. (0.00 ticks)
  Sync time (average)   =    0.00 sec.
  Wait time (average)   =    0.00 sec.
                          ------------
Total (root+branch&cut) =    5.00 sec. (7728.58 ticks)
Gap: 203.57%
Upper bound: -145
Lower bound: -440.183
Termination status: Normal
End of CPLEX run. Time: 5.00805 seconds

===== New CPLEX run =====
Instance: /home/yorig/tuner/mpils-tests/instances/miplib/easy/supportcase33.mps
Config: /scratch/yorig/mpils-results-grid-seconds-5-watchdog-mip-start/easy/8proc/seed-4/10_supportcase33_seed-4_20260504_032501/iterated_local_search/run_3_worker_3/ils_config_14588683056132628856.prm
========================

Selected objective sense:  MINIMIZE
Selected objective  name:  obj
Selected RHS        name:  rhs
Selected bound      name:  bnd
Wall watchdog: enabled factor=1 grace=1 limit=6 seconds
Version identifier: 22.1.2.0 | 2024-11-26 | 0edbb82fd
CPXPARAM_Threads                                 8
CPXPARAM_Parallel                                1
CPXPARAM_MIP_Cuts_Covers                         3
CPXPARAM_MIP_Strategy_SubAlgorithm               5
CPXPARAM_MIP_Strategy_VariableSelect             2
CPXPARAM_MIP_Cuts_FlowCovers                     -1
CPXPARAM_MIP_Strategy_Probe                      1
CPXPARAM_MIP_Cuts_GUBCovers                      1
CPXPARAM_MIP_Limits_GomoryCand                   50
CPXPARAM_MIP_Cuts_Gomory                         1
CPXPARAM_MIP_Cuts_PathCut                        2
CPXPARAM_Emphasis_MIP                            2
CPXPARAM_TimeLimit                               5
Found incumbent of value 0.000000 after 0.00 sec. (2.20 ticks)
Tried aggregator 2 times.
MIP Presolve eliminated 17556 rows and 13423 columns.
MIP Presolve modified 14568 coefficients.
Aggregator did 11 substitutions.
Reduced MIP has 2922 rows, 6763 columns, and 53605 nonzeros.
Reduced MIP has 6683 binaries, 80 generals, 0 SOSs, and 0 indicators.
Presolve time = 0.09 sec. (158.17 ticks)
Probing fixed 667 vars, tightened 0 bounds.
Probing changed sense of 39 constraints.
Probing time = 0.18 sec. (252.14 ticks)
Tried aggregator 2 times.
Detecting symmetries...
MIP Presolve eliminated 639 rows and 667 columns.
MIP Presolve modified 197 coefficients.
Aggregator did 7 substitutions.
Reduced MIP has 2276 rows, 6089 columns, and 46722 nonzeros.
Reduced MIP has 6009 binaries, 80 generals, 0 SOSs, and 0 indicators.
Presolve time = 0.03 sec. (37.79 ticks)
Probing fixed 10 vars, tightened 0 bounds.
Probing time = 0.16 sec. (237.74 ticks)
Clique table members: 24351.
MIP emphasis: optimality.
MIP search method: dynamic search.
Parallel mode: deterministic, using up to 8 threads.
Root relaxation solution time = 0.05 sec. (100.26 ticks)

        Nodes                                         Cuts/
   Node  Left     Objective  IInf  Best Integer    Best Bound    ItCnt     Gap

*     0+    0                            0.0000    -1075.0000              --- 
      0     0     -462.8425   113        0.0000     -462.8425     1315     --- 
      0     0     -446.6667   120        0.0000      Cuts: 63     1320     --- 
      0     0     -446.6667   122        0.0000      Cuts: 65     1325     --- 
      0     0     -446.6667   112        0.0000       Cuts: 6     1330     --- 
*     0+    0                          -15.0000     -446.6667              --- 
*     0+    0                         -145.0000     -446.6667           208.05%
      0     0  -1.00000e+75     0     -145.0000     -446.6667     1330  208.05%
      0     0     -446.6667   131     -145.0000      Cuts: 37     1335  208.05%
Advanced basis not built.

GUB cover cuts applied:  1
Cover cuts applied:  3
Implied bound cuts applied:  10
Mixed integer rounding cuts applied:  4
Flow path cuts applied:  0
Zero-half cuts applied:  6
Gomory fractional cuts applied:  2

Root node processing (before b&c):
  Real time             =    5.00 sec. (7737.70 ticks)
Parallel b&c, 8 threads:
  Real time             =    0.00 sec. (0.00 ticks)
  Sync time (average)   =    0.00 sec.
  Wait time (average)   =    0.00 sec.
                          ------------
Total (root+branch&cut) =    5.00 sec. (7737.70 ticks)
Gap: 203.57%
Upper bound: -145
Lower bound: -440.183
Termination status: Normal
End of CPLEX run. Time: 5.0069 seconds

===== New CPLEX run =====
Instance: /home/yorig/tuner/mpils-tests/instances/miplib/easy/supportcase33.mps
Config: /scratch/yorig/mpils-results-grid-seconds-5-watchdog-mip-start/easy/8proc/seed-4/10_supportcase33_seed-4_20260504_032501/iterated_local_search/run_3_worker_3/ils_config_17265238956814623579.prm
========================

Selected objective sense:  MINIMIZE
Selected objective  name:  obj
Selected RHS        name:  rhs
Selected bound      name:  bnd
Wall watchdog: enabled factor=1 grace=1 limit=6 seconds
Version identifier: 22.1.2.0 | 2024-11-26 | 0edbb82fd
CPXPARAM_Threads                                 8
CPXPARAM_Parallel                                1
CPXPARAM_MIP_Cuts_Cliques                        -1
CPXPARAM_MIP_Cuts_Covers                         3
CPXPARAM_MIP_Strategy_SubAlgorithm               5
CPXPARAM_MIP_Strategy_VariableSelect             4
CPXPARAM_MIP_Cuts_FlowCovers                     -1
CPXPARAM_MIP_Strategy_Probe                      1
CPXPARAM_MIP_Cuts_GUBCovers                      1
CPXPARAM_MIP_Limits_GomoryCand                   50
CPXPARAM_MIP_Cuts_Gomory                         1
CPXPARAM_MIP_Cuts_PathCut                        2
CPXPARAM_Emphasis_MIP                            2
CPXPARAM_TimeLimit                               5
Found incumbent of value 0.000000 after 0.00 sec. (2.20 ticks)
Tried aggregator 2 times.
MIP Presolve eliminated 17556 rows and 13423 columns.
MIP Presolve modified 14568 coefficients.
Aggregator did 11 substitutions.
Reduced MIP has 2922 rows, 6763 columns, and 53605 nonzeros.
Reduced MIP has 6683 binaries, 80 generals, 0 SOSs, and 0 indicators.
Presolve time = 0.09 sec. (158.17 ticks)
Probing fixed 667 vars, tightened 0 bounds.
Probing changed sense of 39 constraints.
Probing time = 0.18 sec. (252.14 ticks)
Tried aggregator 2 times.
Detecting symmetries...
MIP Presolve eliminated 639 rows and 667 columns.
MIP Presolve modified 197 coefficients.
Aggregator did 7 substitutions.
Reduced MIP has 2276 rows, 6089 columns, and 46722 nonzeros.
Reduced MIP has 6009 binaries, 80 generals, 0 SOSs, and 0 indicators.
Presolve time = 0.03 sec. (37.79 ticks)
Probing fixed 10 vars, tightened 0 bounds.
Probing time = 0.16 sec. (237.74 ticks)
Clique table members: 24351.
MIP emphasis: optimality.
MIP search method: dynamic search.
Parallel mode: deterministic, using up to 8 threads.
Root relaxation solution time = 0.05 sec. (100.26 ticks)

        Nodes                                         Cuts/
   Node  Left     Objective  IInf  Best Integer    Best Bound    ItCnt     Gap

*     0+    0                            0.0000    -1075.0000              --- 
      0     0     -462.8425   113        0.0000     -462.8425     1315     --- 
      0     0     -446.6667   120        0.0000      Cuts: 63     1320     --- 
      0     0     -446.6667   122        0.0000      Cuts: 65     1325     --- 
      0     0     -446.6667   112        0.0000       Cuts: 6     1330     --- 
*     0+    0                          -15.0000     -446.6667              --- 
*     0+    0                         -145.0000     -446.6667           208.05%
      0     0  -1.00000e+75     0     -145.0000     -446.6667     1330  208.05%
      0     0     -446.6667   131     -145.0000      Cuts: 37     1335  208.05%
Advanced basis not built.

GUB cover cuts applied:  1
Cover cuts applied:  3
Implied bound cuts applied:  10
Mixed integer rounding cuts applied:  4
Flow path cuts applied:  0
Zero-half cuts applied:  6
Gomory fractional cuts applied:  2

Root node processing (before b&c):
  Real time             =    5.00 sec. (7736.39 ticks)
Parallel b&c, 8 threads:
  Real time             =    0.00 sec. (0.00 ticks)
  Sync time (average)   =    0.00 sec.
  Wait time (average)   =    0.00 sec.
                          ------------
Total (root+branch&cut) =    5.00 sec. (7736.39 ticks)
Gap: 203.57%
Upper bound: -145
Lower bound: -440.183
Termination status: Normal
End of CPLEX run. Time: 5.0069 seconds

===== New CPLEX run =====
Instance: /home/yorig/tuner/mpils-tests/instances/miplib/easy/supportcase33.mps
Config: /scratch/yorig/mpils-results-grid-seconds-5-watchdog-mip-start/easy/8proc/seed-4/10_supportcase33_seed-4_20260504_032501/iterated_local_search/run_3_worker_3/ils_config_16259167448569487752.prm
========================

Selected objective sense:  MINIMIZE
Selected objective  name:  obj
Selected RHS        name:  rhs
Selected bound      name:  bnd
Wall watchdog: enabled factor=1 grace=1 limit=6 seconds
Version identifier: 22.1.2.0 | 2024-11-26 | 0edbb82fd
CPXPARAM_Threads                                 8
CPXPARAM_Parallel                                1
CPXPARAM_MIP_Cuts_Covers                         3
CPXPARAM_MIP_Strategy_SubAlgorithm               5
CPXPARAM_MIP_Strategy_VariableSelect             4
CPXPARAM_MIP_Cuts_FlowCovers                     -1
CPXPARAM_MIP_Strategy_Probe                      1
CPXPARAM_MIP_Cuts_GUBCovers                      -1
CPXPARAM_MIP_Limits_GomoryCand                   50
CPXPARAM_MIP_Cuts_Gomory                         1
CPXPARAM_MIP_Cuts_PathCut                        2
CPXPARAM_Emphasis_MIP                            2
CPXPARAM_TimeLimit                               5
Found incumbent of value 0.000000 after 0.00 sec. (2.20 ticks)
Tried aggregator 2 times.
MIP Presolve eliminated 17556 rows and 13423 columns.
MIP Presolve modified 14568 coefficients.
Aggregator did 11 substitutions.
Reduced MIP has 2922 rows, 6763 columns, and 53605 nonzeros.
Reduced MIP has 6683 binaries, 80 generals, 0 SOSs, and 0 indicators.
Presolve time = 0.09 sec. (158.17 ticks)
Probing fixed 667 vars, tightened 0 bounds.
Probing changed sense of 39 constraints.
Probing time = 0.18 sec. (252.14 ticks)
Tried aggregator 2 times.
Detecting symmetries...
MIP Presolve eliminated 639 rows and 667 columns.
MIP Presolve modified 197 coefficients.
Aggregator did 7 substitutions.
Reduced MIP has 2276 rows, 6089 columns, and 46722 nonzeros.
Reduced MIP has 6009 binaries, 80 generals, 0 SOSs, and 0 indicators.
Presolve time = 0.03 sec. (37.79 ticks)
Probing fixed 10 vars, tightened 0 bounds.
Probing time = 0.16 sec. (237.74 ticks)
Clique table members: 24351.
MIP emphasis: optimality.
MIP search method: dynamic search.
Parallel mode: deterministic, using up to 8 threads.
Root relaxation solution time = 0.05 sec. (100.26 ticks)

        Nodes                                         Cuts/
   Node  Left     Objective  IInf  Best Integer    Best Bound    ItCnt     Gap

*     0+    0                            0.0000    -1075.0000              --- 
      0     0     -462.8425   113        0.0000     -462.8425     1315     --- 
      0     0     -446.6667   122        0.0000      Cuts: 59     1320     --- 
      0     0     -446.6667   130        0.0000      Cuts: 42     1329     --- 
      0     0     -446.6667   124        0.0000       Cuts: 8     1336     --- 
*     0+    0                          -80.0000     -446.6667           458.33%
*     0+    0                         -105.0000     -446.6667           325.40%
      0     0     -446.6667   132     -105.0000      Cuts: 48     1339  325.40%

Cover cuts applied:  2
Implied bound cuts applied:  4
Mixed integer rounding cuts applied:  3
Flow path cuts applied:  0
Zero-half cuts applied:  4
Gomory fractional cuts applied:  2

Root node processing (before b&c):
  Real time             =    5.00 sec. (7687.89 ticks)
Parallel b&c, 8 threads:
  Real time             =    0.00 sec. (0.00 ticks)
  Sync time (average)   =    0.00 sec.
  Wait time (average)   =    0.00 sec.
                          ------------
Total (root+branch&cut) =    5.00 sec. (7687.89 ticks)
Gap: 325.4%
Upper bound: -105
Lower bound: -446.667
Termination status: Normal
End of CPLEX run. Time: 5.0057 seconds

===== New CPLEX run =====
Instance: /home/yorig/tuner/mpils-tests/instances/miplib/easy/supportcase33.mps
Config: /scratch/yorig/mpils-results-grid-seconds-5-watchdog-mip-start/easy/8proc/seed-4/10_supportcase33_seed-4_20260504_032501/iterated_local_search/run_3_worker_3/ils_config_14254085356395310692.prm
========================

Selected objective sense:  MINIMIZE
Selected objective  name:  obj
Selected RHS        name:  rhs
Selected bound      name:  bnd
Wall watchdog: enabled factor=1 grace=1 limit=6 seconds
Version identifier: 22.1.2.0 | 2024-11-26 | 0edbb82fd
CPXPARAM_Threads                                 8
CPXPARAM_Parallel                                1
CPXPARAM_MIP_Cuts_Covers                         1
CPXPARAM_MIP_Strategy_SubAlgorithm               5
CPXPARAM_MIP_Strategy_VariableSelect             4
CPXPARAM_MIP_Cuts_FlowCovers                     -1
CPXPARAM_MIP_Strategy_Probe                      1
CPXPARAM_MIP_Cuts_GUBCovers                      1
CPXPARAM_MIP_Limits_GomoryCand                   50
CPXPARAM_MIP_Cuts_Gomory                         1
CPXPARAM_MIP_Cuts_PathCut                        2
CPXPARAM_Emphasis_MIP                            2
CPXPARAM_TimeLimit                               5
Found incumbent of value 0.000000 after 0.00 sec. (2.20 ticks)
Tried aggregator 2 times.
MIP Presolve eliminated 17556 rows and 13423 columns.
MIP Presolve modified 14568 coefficients.
Aggregator did 11 substitutions.
Reduced MIP has 2922 rows, 6763 columns, and 53605 nonzeros.
Reduced MIP has 6683 binaries, 80 generals, 0 SOSs, and 0 indicators.
Presolve time = 0.09 sec. (158.17 ticks)
Probing fixed 667 vars, tightened 0 bounds.
Probing changed sense of 39 constraints.
Probing time = 0.17 sec. (252.14 ticks)
Tried aggregator 2 times.
Detecting symmetries...
MIP Presolve eliminated 639 rows and 667 columns.
MIP Presolve modified 197 coefficients.
Aggregator did 7 substitutions.
Reduced MIP has 2276 rows, 6089 columns, and 46722 nonzeros.
Reduced MIP has 6009 binaries, 80 generals, 0 SOSs, and 0 indicators.
Presolve time = 0.03 sec. (37.79 ticks)
Probing fixed 10 vars, tightened 0 bounds.
Probing time = 0.16 sec. (237.74 ticks)
Clique table members: 24351.
MIP emphasis: optimality.
MIP search method: dynamic search.
Parallel mode: deterministic, using up to 8 threads.
Root relaxation solution time = 0.05 sec. (100.26 ticks)

        Nodes                                         Cuts/
   Node  Left     Objective  IInf  Best Integer    Best Bound    ItCnt     Gap

*     0+    0                            0.0000    -1075.0000              --- 
      0     0     -462.8425   113        0.0000     -462.8425     1315     --- 
      0     0     -446.6667   120        0.0000      Cuts: 63     1320     --- 
      0     0     -446.6667   122        0.0000      Cuts: 65     1325     --- 
      0     0     -446.6667   112        0.0000       Cuts: 6     1330     --- 
*     0+    0                          -15.0000     -446.6667              --- 
*     0+    0                         -145.0000     -446.6667           208.05%
      0     0  -1.00000e+75     0     -145.0000     -446.6667     1330  208.05%
      0     0     -446.6667   131     -145.0000      Cuts: 37     1335  208.05%

GUB cover cuts applied:  1
Cover cuts applied:  3
Implied bound cuts applied:  10
Mixed integer rounding cuts applied:  4
Flow path cuts applied:  0
Zero-half cuts applied:  6
Gomory fractional cuts applied:  2

Root node processing (before b&c):
  Real time             =    5.00 sec. (7738.59 ticks)
Parallel b&c, 8 threads:
  Real time             =    0.00 sec. (0.00 ticks)
  Sync time (average)   =    0.00 sec.
  Wait time (average)   =    0.00 sec.
                          ------------
Total (root+branch&cut) =    5.00 sec. (7738.59 ticks)
Gap: 203.57%
Upper bound: -145
Lower bound: -440.183
Termination status: Normal
End of CPLEX run. Time: 5.00602 seconds

===== New CPLEX run =====
Instance: /home/yorig/tuner/mpils-tests/instances/miplib/easy/supportcase33.mps
Config: /scratch/yorig/mpils-results-grid-seconds-5-watchdog-mip-start/easy/8proc/seed-4/10_supportcase33_seed-4_20260504_032501/iterated_local_search/run_3_worker_3/ils_config_11494744065896827087.prm
========================

Selected objective sense:  MINIMIZE
Selected objective  name:  obj
Selected RHS        name:  rhs
Selected bound      name:  bnd
Wall watchdog: enabled factor=1 grace=1 limit=6 seconds
Version identifier: 22.1.2.0 | 2024-11-26 | 0edbb82fd
CPXPARAM_Threads                                 8
CPXPARAM_Parallel                                1
CPXPARAM_MIP_Cuts_Covers                         3
CPXPARAM_MIP_Strategy_SubAlgorithm               5
CPXPARAM_MIP_Strategy_VariableSelect             4
CPXPARAM_MIP_Cuts_FlowCovers                     -1
CPXPARAM_MIP_Strategy_Probe                      1
CPXPARAM_MIP_Cuts_GUBCovers                      1
CPXPARAM_MIP_Limits_GomoryCand                   50
CPXPARAM_MIP_Cuts_Gomory                         1
CPXPARAM_MIP_Cuts_PathCut                        2
CPXPARAM_MIP_Cuts_MIRCut                         -1
CPXPARAM_Emphasis_MIP                            2
CPXPARAM_TimeLimit                               5
Found incumbent of value 0.000000 after 0.00 sec. (2.20 ticks)
Tried aggregator 2 times.
MIP Presolve eliminated 17556 rows and 13423 columns.
MIP Presolve modified 14568 coefficients.
Aggregator did 11 substitutions.
Reduced MIP has 2922 rows, 6763 columns, and 53605 nonzeros.
Reduced MIP has 6683 binaries, 80 generals, 0 SOSs, and 0 indicators.
Presolve time = 0.09 sec. (158.17 ticks)
Probing fixed 667 vars, tightened 0 bounds.
Probing changed sense of 39 constraints.
Probing time = 0.17 sec. (252.14 ticks)
Tried aggregator 2 times.
Detecting symmetries...
MIP Presolve eliminated 639 rows and 667 columns.
MIP Presolve modified 197 coefficients.
Aggregator did 7 substitutions.
Reduced MIP has 2276 rows, 6089 columns, and 46722 nonzeros.
Reduced MIP has 6009 binaries, 80 generals, 0 SOSs, and 0 indicators.
Presolve time = 0.03 sec. (37.79 ticks)
Probing fixed 10 vars, tightened 0 bounds.
Probing time = 0.16 sec. (237.74 ticks)
Clique table members: 24351.
MIP emphasis: optimality.
MIP search method: dynamic search.
Parallel mode: deterministic, using up to 8 threads.
Root relaxation solution time = 0.05 sec. (100.26 ticks)

        Nodes                                         Cuts/
   Node  Left     Objective  IInf  Best Integer    Best Bound    ItCnt     Gap

*     0+    0                            0.0000    -1075.0000              --- 
      0     0     -462.8425   113        0.0000     -462.8425     1315     --- 
      0     0     -446.6667   127        0.0000      Cuts: 57     1321     --- 
      0     0     -440.0000   131        0.0000      Cuts: 40     1331     --- 
      0     0     -440.0000   137        0.0000      Cuts: 29     1335     --- 
*     0+    0                          -40.0000     -440.0000              --- 
*     0+    0                         -105.0000     -440.0000           319.05%
      0     0     -440.0000   128     -105.0000       Cuts: 6     1344  319.05%
      0     0     -440.0000   137     -105.0000      Cuts: 53     1350  319.05%
Detecting symmetries...
Advanced basis not built.

GUB cover cuts applied:  1
Cover cuts applied:  3
Implied bound cuts applied:  5
Flow path cuts applied:  0
Zero-half cuts applied:  3
Gomory fractional cuts applied:  3

Root node processing (before b&c):
  Real time             =    5.00 sec. (7869.08 ticks)
Parallel b&c, 8 threads:
  Real time             =    0.00 sec. (0.00 ticks)
  Sync time (average)   =    0.00 sec.
  Wait time (average)   =    0.00 sec.
                          ------------
Total (root+branch&cut) =    5.00 sec. (7869.08 ticks)
Gap: 319.05%
Upper bound: -105
Lower bound: -440
Termination status: Normal
End of CPLEX run. Time: 5.00721 seconds

===== New CPLEX run =====
Instance: /home/yorig/tuner/mpils-tests/instances/miplib/easy/supportcase33.mps
Config: /scratch/yorig/mpils-results-grid-seconds-5-watchdog-mip-start/easy/8proc/seed-4/10_supportcase33_seed-4_20260504_032501/iterated_local_search/run_3_worker_3/ils_config_10373609350483153778.prm
========================

Selected objective sense:  MINIMIZE
Selected objective  name:  obj
Selected RHS        name:  rhs
Selected bound      name:  bnd
Wall watchdog: enabled factor=1 grace=1 limit=6 seconds
Version identifier: 22.1.2.0 | 2024-11-26 | 0edbb82fd
CPXPARAM_Threads                                 8
CPXPARAM_Parallel                                1
CPXPARAM_MIP_Cuts_Covers                         3
CPXPARAM_MIP_Strategy_SubAlgorithm               5
CPXPARAM_MIP_Strategy_VariableSelect             4
CPXPARAM_MIP_Cuts_FlowCovers                     -1
CPXPARAM_MIP_Strategy_Probe                      1
CPXPARAM_MIP_Limits_GomoryCand                   50
CPXPARAM_MIP_Cuts_Gomory                         1
CPXPARAM_MIP_Cuts_PathCut                        2
CPXPARAM_Emphasis_MIP                            2
CPXPARAM_TimeLimit                               5
Found incumbent of value 0.000000 after 0.00 sec. (2.20 ticks)
Tried aggregator 2 times.
MIP Presolve eliminated 17556 rows and 13423 columns.
MIP Presolve modified 14568 coefficients.
Aggregator did 11 substitutions.
Reduced MIP has 2922 rows, 6763 columns, and 53605 nonzeros.
Reduced MIP has 6683 binaries, 80 generals, 0 SOSs, and 0 indicators.
Presolve time = 0.09 sec. (158.17 ticks)
Probing fixed 667 vars, tightened 0 bounds.
Probing changed sense of 39 constraints.
Probing time = 0.18 sec. (252.14 ticks)
Tried aggregator 2 times.
Detecting symmetries...
MIP Presolve eliminated 639 rows and 667 columns.
MIP Presolve modified 197 coefficients.
Aggregator did 7 substitutions.
Reduced MIP has 2276 rows, 6089 columns, and 46722 nonzeros.
Reduced MIP has 6009 binaries, 80 generals, 0 SOSs, and 0 indicators.
Presolve time = 0.03 sec. (37.79 ticks)
Probing fixed 10 vars, tightened 0 bounds.
Probing time = 0.16 sec. (237.74 ticks)
Clique table members: 24351.
MIP emphasis: optimality.
MIP search method: dynamic search.
Parallel mode: deterministic, using up to 8 threads.
Root relaxation solution time = 0.05 sec. (100.26 ticks)

        Nodes                                         Cuts/
   Node  Left     Objective  IInf  Best Integer    Best Bound    ItCnt     Gap

*     0+    0                            0.0000    -1075.0000              --- 
      0     0     -462.8425   113        0.0000     -462.8425     1315     --- 
      0     0     -446.6667   120        0.0000      Cuts: 63     1320     --- 
      0     0     -446.6667   125        0.0000      Cuts: 65     1325     --- 
      0     0     -446.6667   126        0.0000       Cuts: 6     1329     --- 
*     0+    0                          -95.0000     -446.6667           370.18%
*     0+    0                         -130.0000     -446.6667           243.59%
      0     0  -1.00000e+75     0     -130.0000     -446.6667     1329  243.59%
Advanced basis not built.

GUB cover cuts applied:  1
Cover cuts applied:  2
Implied bound cuts applied:  6
Mixed integer rounding cuts applied:  5
Flow path cuts applied:  0
Zero-half cuts applied:  9
Gomory fractional cuts applied:  2

Root node processing (before b&c):
  Real time             =    5.01 sec. (7515.14 ticks)
Parallel b&c, 8 threads:
  Real time             =    0.00 sec. (0.00 ticks)
  Sync time (average)   =    0.00 sec.
  Wait time (average)   =    0.00 sec.
                          ------------
Total (root+branch&cut) =    5.01 sec. (7515.14 ticks)
Gap: 238.6%
Upper bound: -130
Lower bound: -440.183
Termination status: Normal
End of CPLEX run. Time: 5.00848 seconds
